
 102   30
  10   10   10   10   10   10   10   10   10   10   10   10   10   10   10   10   10   10   10   10   10   10   10   10   10   10   10   10   10   10

   0   0   0   0   0   0   0   0   0   0   0   0   0   0   0   0   0   0   0   0   0   0   0   0   0   0   0   0   0   0   0  25 2 3 4 5 6 7 8 9 10 11 12 13 14 15 17 19 20 21 22 24 26 27 32 35 40 
   6   0   0   0   0   0   5   0   0   0   0   0   4   0   0   0   0   0   1   0   0   0   0   0   0   0   0   0   0   0   0  14 59 56 51 50 49 48 47 42 38 34 33 29 28 18 
   8   0   0   0   0   0   0   0   0   0   1   0   0   0   3   0   0   0   3   0   0   0   0   0   0   1   0   0   0   0   0  11 99 68 62 60 55 52 46 44 38 25 16 
  10   0   2   0   0   1   0   0   0   0   0   0   0   0   0   0   0   1   0   2   0   0   0   2   0   0   0   1   0   0   0  14 101 100 70 69 67 66 62 60 57 56 49 46 38 28 
   9   0   0   0   0   0   0   0   0   0   0   0   0   0   0   0   0   0   5   0   0   0   0   0   0   0   1   0   0   0   0  18 101 99 96 75 70 68 67 65 62 60 57 56 55 52 51 47 38 34 
   3   2   0   0   0   0   0   3   0   0   0   0   0   1   0   2   0   5   0   0   0   1   0   0   0   0   0   0   4   0   0  13 98 97 60 57 54 48 47 43 42 41 37 36 29 
   9   0   0   0   0   0   0   0   0   0   0   0   0   0   0   6   0   0  10   0   0   0   1   9   0   0   4   0   0   0   0  17 100 98 96 75 70 69 68 67 66 62 58 55 52 51 48 38 37 
   4   0   0   0   1   0   5   0   1   0   0   0   0   0   0   0   0   0   0   0   2   0   0   0   0   0   0   0   0   3   0  14 101 100 96 92 75 68 62 56 55 54 49 43 34 31 
   2   0   0   0   0   0   0   4   0   0   0   0   0   0   0   0   0   0   0   0   0   0   0   0   1   0   0   0   0   0   0  16 101 97 96 94 70 68 67 65 62 57 55 49 47 41 39 34 
  10   0   0   0   0   0   5   0   6   2   0   0   0   0   0   0   0   0   0   4   0   0   6   0   0   0   0   0   0   0   0   9 99 96 93 70 57 47 38 37 23 
   6   0   0   0   0   0   0   0   0   0   0   0   0   0   0   5   0   0   0   0   0   9   0   0   0   0   0   0   0   0   0  19 98 97 96 94 89 71 69 67 66 63 61 58 55 54 53 52 50 45 43 
   2   0   0   1   0   0   0   0  10   6   0   0   0   0   0   7   0   0   0   0   0   0   3   0   0   0   0   0   0   0   0  16 100 97 96 92 75 69 67 66 64 62 61 60 56 54 47 37 
   4   2   0   0   0   0   0   5   0   0   2   0   0   0   0   0   0   0   0   0   8   0   0   0   0  10   0   0   0   0   0  10 101 99 94 69 68 64 47 44 33 30 
   4   5   0   0   0   0   8   0   0   4   0   0   0   0   0   0   0   0   0   0   0   0   0   3   0   0   7   0   0   4   2  18 101 99 98 94 92 90 74 71 65 61 56 55 54 52 51 47 43 42 
   1   0   0   0   0   6   0   0   0   0   0   0   0   0   0  10   0   0   0   0   0   0   0   0   6   9   6   0   0   0   0  18 100 99 98 97 96 94 89 75 71 68 67 65 64 62 58 55 52 48 
   2   0   6   0  10   0   0   0   0   0   0   0   0   0   6   0   0   0   0   4   0   0   0   0   0   6   0   0   0  10   0  11 100 98 97 93 86 67 66 51 48 41 37 
   9   0  10   0   0   4   0   0   0   7   0   0   5   0   8   0   0   0   0   0   0   0   0   0   0   0   0   0   0   0   5  15 98 96 94 93 88 83 74 67 65 63 61 54 49 47 41 
  10   0   0   0   0   0   0   0   0   0   0   0   0   0   6   0   0   0   0   0   0   0   0   0   0   0   0   0   6   0   0  17 101 100 98 97 95 94 92 89 83 81 75 71 68 66 63 55 53 
   8   0   0   0   0   0   0   6   0   0   0   0   0   0   0   0   0   0   0   0   0   0   0   0   0   0   0   0   5   0   0  17 98 97 96 95 94 92 91 89 83 75 69 65 63 62 60 56 54 
   7   0  10   0   0   0   0   0   0   0   0   0   0   0   0   0   1   0   0   0   0   0   0   6   0   0   0   0   6   0   0  14 98 97 96 94 91 89 88 83 74 69 65 63 54 41 
   7   0   0   0   0   0   7   0   0   0   0   0   5   0   5   0   0   0   0   0   0   0   0   0   0   0   0   0   0   6   0  12 99 97 91 89 87 68 67 66 64 57 54 44 
   8   6   4   0   0   0   0   0   0   0   0   0   6   0   0   0   0   0   0   0   5   0   0   0   0   0   0   0   0   0   0  11 97 96 93 92 85 82 67 61 52 50 37 
  10   0   0   0   0   0   0   0   4   0   0   0   0   0   0   0   0   5   0   0   3   0   0   0   0   0   0   0   0   0   4  17 100 98 97 94 92 90 89 83 81 68 66 65 64 62 61 54 51 
   3   0   0   0   0   0   0   0   0   0   0   0   0   0   0   0   0   0   0   0   0   0   0   0   0   0   0   7   0   7   0  12 97 94 90 87 85 74 71 68 67 56 54 42 
   7   0   0   0   0   0   0   0   0   0   0   0   0   0   0   0   0   0   0   0   0   0   0   0   0   0   0   0   0   0   0   9 97 92 88 84 67 66 64 47 37 
   2   0   0   0   0   0   0   0   0   0   0   0   0   0   0   4   0   0   0   0   0   0   7   0   0   3   5   0   0   0   0  11 97 92 90 89 87 85 78 67 64 55 44 
   8   0   0   0   0   0   0   0   0   5   0   0   0   0   0   0   0   0   0   0   0   0   5   0   0   0   0   0   0   0   0  10 98 92 87 85 81 65 60 55 54 42 
   3   0   5   0   0   0   0   0  10   0   6   0   0   0   0   0   0   6   4   0   0   2   0   0   0   0   5   0   0   0   0   8 98 96 88 86 84 82 53 37 
   7   4   0   0   0   0   0   0   0   0   0   0   0   0   0   0   0   0   0   0   0   0   0   0   0   0   8   0   5   0  10  16 96 94 92 90 89 85 83 81 79 75 74 72 68 67 64 55 
   5   0   0   0   0   6   0   0   0   0   0   0   0   9   0   0   0   0   0   0   0   0   8   0   0   0   0   0   0   0   0  14 98 96 89 87 84 83 82 81 73 71 66 62 61 48 
   7  10   0   0   0   6   0   0   0   0   0   0   5   0   7   0   0   0  10   0   0   0   0   5   0   0   0   6   0   0   0  14 99 97 95 94 89 86 85 81 74 69 65 64 61 60 
   5   0   0   0   0   0   0   0   0   0   0   0   0   0   0   0   7   0   0   0   0   0   0   0   0   0   0   0   6   0   0  12 93 90 88 83 79 77 74 71 68 66 64 54 
   7   0   0   0   6   0   0   0   0   0   0   0   0   0   0   0   0   9   0   0   4   0   4   4   0   0   0  10   8   5   0  18 97 95 92 91 89 88 87 86 85 83 82 81 80 79 77 74 73 72 
  10   0   0   0   0   0   0   0   0   0   0   0   0   0   0  10   0   0   0   0   0   0   0   0   0   6   0   0   0   0   8  13 98 91 88 86 83 82 81 80 74 73 71 66 63 
   7   0   0   0   2   0   0   0   0   0   0   2   0   0   0   0   0   0   0   0   0   0   0   0   6   0   0   7   0   2  10  12 96 92 91 87 84 83 82 81 74 71 64 63 
   7   0   0   0   0   0   0  10   0   0   0   0   0   0   0   0   0   0   0   0   0   0   0   0   0   0   0   0   0   0   0  11 100 95 91 82 81 80 71 69 66 63 61 
   6   0   0   0   0   0   0   0   0   0   0   6   0   0   0   0   0   0   0   0   0   0   5   6   0   0   8   0   6   0   6  12 94 91 90 89 87 83 81 80 74 71 65 63 
   8   6   0  10   0   0   0   6   0   0   0   0   0   0   0   0   0   0   0   0   0   0   0   0   4   0   0   0   0   6   0   9 97 95 94 87 85 83 64 61 54 
   8   0   9   0   0   0   0   0   0   0   0   0   4   0   0   0   0   0   0   0   0   0   0   0   0   0   0   0   0   0   0  12 99 91 86 84 83 81 80 79 77 74 72 66 
   1   0   3   0   0   0   0   0   0  10   0   0   0   5   0   3   0   0   0   0   0   0   0   0   0   0   0   0   0   0   0  12 94 91 89 85 82 81 80 75 73 72 65 63 
   8   0   0   0   9   0   0   0   0   0   0   0   0   0   0   0   0   0   0   5   0   0   0   0   7   0   0   0   0   0   0  10 95 92 90 87 85 82 81 75 71 64 
   3   0   0   0   0   0   0   0   0   0   0   0   0   0   0   0   0   0   0   0   6   0   8   3   0   0   8   7   0   0   7  10 96 91 89 88 86 83 78 72 64 63 
   2   0   6   0   0   0   0   8   0   0   0   8   0   0   0   0   0   0   0   0   0   0   0   6   0   0  10   0   7   0   0  12 93 88 87 86 83 82 80 79 78 77 73 72 
   6   0   0   3   0   0   0   0   0   0   5   0   0   0   0   0   0   0   0   0   0   0   0   0   0   0   0   0   0   0   0  10 98 96 93 88 84 83 81 79 75 71 
   1   0   0   0   0   0   0   0   0   0   0   0   0   0   0   0   0   0   0   0   0   8   0   7   0   0   0   5   0   0   0   9 92 90 87 86 84 79 77 74 64 
   8   0   0   0   0   0   0   0   0   8   0   0   0   3   0   0   0   0   0   0   0   0   0   0   0   0   0   0   0   0   0   9 92 91 89 88 83 82 78 75 72 
  10   0   0   0   9   5   6   0   0   0   0   0   0   0   0   0   8   0   0   6   0   0   0   0   0   0   0   0   6   0   0  10 95 89 87 86 85 81 79 78 77 76 
   5   8   0   0   0   0   0   0   0   0   0   0  10   0   0   0   0   0   0   0   0   0   0   0   0   0   0   0   0   0   0   6 92 90 80 77 74 72 
  10   0   0   0   0   0   0   0   0   4   0   0   0   0   0   0   0   5   0   0   0   0   0   0   0   0   0   0   0   0   0   7 99 95 86 82 81 78 76 
  10   0   0   0   0   0   0   6   3   0   0   0   8   0   0   0   0   0   0   0   0   0   0   0   0   0   0   7   0   0   0   4 84 79 72 64 
   9   0   0   0   0   0   0   0   3   0   0   0   0   0   0   0   0   5   0   0   5   0   0   0  10   0   0   0   0   0   6   6 88 87 82 80 79 76 
   9   0   0   0   9   9   0   0   0   0   0   0   0   0   8   0   0   0   0   0   0   0   0   0  10   0   0   5   0   0   0   5 95 81 77 73 72 
   5   0   4   0   0   0   0   0   0   0   0   0   0   0   0   0   0   0   0   0   0   0   0   0   0   4   7   0   0   7   4   3 93 87 64 
   3   0   0   9   0   7   0  10   0   0   0   6   0   0   0   0   0   5   8   0   0   0   0   0   0   0   0   0   0   0   0   5 86 82 80 78 76 
   6  10   0   6   0   0   5   0   0   0   0   0   0   5   0   0   0   0   0   0   0   0   0   0   7   0   0   0   0   0   0   5 93 91 88 86 82 
   9   0   0   0   0   0   6   0   0   0   0   0   0   0   0   0   0  10   0   0   0   0   0   0   0   0   0   0   0   0   0   5 93 84 81 78 76 
   6   0   0   0   0   0   0   0   0   5   0   0   0   0   0   0   0   0   0   0   0   0   0   0   0   0   0   0   0   0   0   5 92 84 80 79 76 
   2   0   8   7   0   0   0   3   0   0   0   0   0   0   0   0   0   0   0   0   0   0   0   0   0   0   0   0   0   7   0   5 90 87 84 83 79 
  10   0   0   0   0   0   0   0   0   0   0   0   0   0   0   0   0   0   0   3   0   0   9   0   5   0   0   0   0   0   2   5 97 89 84 77 76 
   2   0   0   0   7   0   0   0   0   0   0   0   0   8   0   0   0   0   8   0   0   0   0   0   0   0   0   0   0   0   8   4 90 88 73 72 
   6   7   0   0   0   0   0   0   0   0  10   0   0   0   0   0   0   0   0   0   0   0   0   0   0   0   0   0   0   0   4   3 79 78 72 
   3   0   0   0   0   0   0   0   0   0   0   3   0   0   6   0   0   0   0   5   0   0   0   5   5   0   0   0   0   0   0   3 85 77 74 
   1   0   0   0   0   0   0   0   0   0   0   0   0   0   0   0   0   0   0   0   0   0   0   0   0   0   0   0  10   0   0   3 79 77 76 
   5   0   0   0   0   7   8   0   0   0   0   0   0   0   0   7   0   0   0   0   0   0   0   0   0   0   0   0   0   0   0   2 80 73 
   7   0   0   0   0   0   0   0   0   4   0   0   0   0   0   0   0   0   5   0   0   0   0   0   0   0   0   0   0   0  10   2 79 77 
   5   0   0   0   0   0   0   0  10   0   0   0   0   0   0   0   0   0   0   0   0   0   0   3   0   0   0   0   4   0   0   2 85 78 
   3   0   0   0   0   9   0   0   0   0   0   5   0   0   0   0   0   0   3   0   0   0   0   0   0   6   6   0   2   0   0   2 77 76 
   9   0   0   0   0   7   0   0   0   0   0   0   0   0   0   0   0   0   0   0   0   0   0   0   0   0   5   0   0   0   0   2 84 76 
   5   0   0   0   0   0   0   0   6   0   0   0   0   0   0   0   0   0   0   0   0   0   0   0   0   0   0   0   0   0   0   2 84 76 
   6   7   0   0   0   0   0   0   0   0   0   0   0   0   0   0   0   0   6   0   0   0   0   0   0   0   0   5   0   0   0   2 90 78 
   5   0   0   0   0   0   0   0   0   0   0   0   0   8   0   0   0   0   6   0   0   0   0   0   0   6   0   0   0   0   0   1 72 
   5   0   0   0   0   0   0   6   0   0   0   0   0   0   0   0   0   0   0   0   0   0   0   0   0   0   0   0   0   8   0   1 76 
   4   0   0   0   0   0   0   0   0   0   0  10   0   0   0   0   0   0   0   0   0   9   0   0   0   0   0   0   0   0   0   1 76 
   3   0   0   0   0   0   0   0   0   0   0   0   0   0   0   0   0   0   0   0   0   8   0   9   0  10   0   0   0   0   0   1 78 
  10   9   0   0   0   0   0   0   0   0   0   0   0   0   0   8   0   0   9   0  10   0   0   0   0   0   0   0   0   7   0   1 77 
   6   0   0   0   0   0   0   0   0   0   0   0   0   0   0   0   0   7   0   0   0   0   0   0   0   6   0   0   0   0   0   1 102
   8   0   7   0   0   0   3   0   5  10   0   0   0   0   0   0   7   0   0   0   0   0   0   0   0   0   0   0   0   0   0   1 102
   5   0   4   0   0   0   0   6   0   0   0   0   0   0   0   0   0   0   0   0   8   0   0   0   0   6   0   0   0   0   0   1 102
   8   0   0   3   0   0   0   0   0   0   0   4   0   0   0   0   0   0   8   0   0   0   0   0   0   0   0   0   0   0   2   1 102
   9   0   0   0   1   0   0   0   0   0   2   0   0   0   0   0   0   0   0   0   5   0   7  10   0   0   0   0   0   0   0   1 102
   5   0   3   0   0   2   0   5   0   0   0   0   0   0   0   0   0   8   0   0   9   0   0   0   0   0   0   0   0   0   7   1 102
   8   0   0   0   0   0   0   0   0   0   0   0   0   0   0   4   0   0   0   0   0   0   0   0   0   6   0   0   0   0   0   1 102
   9   5   0   4   0   0   0   0   0   0   0   0   0   0   0   0   0   0   5   0   5   0   0   0   0   0   0   0   0   0   0   1 102
   3   0   0   0   0   0   5   0   0   0   0   0   0   0   3   0   0   0   0  10   0   6   0   0   0   0   0   0   8  10   0   1 102
   1   0   0   0   0   0   6   0   8   0   0   0   0   0  10   0   0   7   0   0   0   0   0   0   0   0   8   0   7   0   7   1 102
   9   0   0   0   0   0   0   0   0   0   0   0   0   0   0   0   0   0   0   0   0   0   0   0   0   0   0   0   0   0   0   1 102
   6   0   0   0   0   0  10   0   0   9   0   0   0   0   0   0   0   0   0   0   0   0   0   0   8   0   8   0   0   0   0   1 102
   3   0   0   0   0   0   0   0   0   0   0   0   0   0   0   0   0   0   0  10   0   0   0   0   0   0   0   0   0   0   0   1 102
   3   0   0   0   0   0   0   0   0   0   9   0   0   9   0   0   0   0   0   9   0   0   0   0   0   0   0   0   8   0   0   1 102
   2   2   7   0   0   0   0   0   0   0   0   0   0   0   0   0   0   0   0   0   0   0   6   0   0   0   2   0   0   0   0   1 102
   6   0   0   0   0   0   0   0   0   0   0   0   0   0   0   0   7   0   5   0   0   0   0   0   0   4   0   0   0   5   0   1 102
   7   5   0   0   0   0   0   0   0   0   0   0   0   0   0   0   0   0   0   0   9   0   0   0   0   0   0   0   0   0   6   1 102
  10   0   9   0   0   0   0   0   0   0   0   0   0   0   0   0   0   0   0   0   0   0   0   0   0   0   4   0   0   0   0   1 102
   7   0   5   7   0   0   0   0   0   0   0   0   0   0   0   0   0   0   0   0   0   0   0   8   0   0   0   0   0   0   0   1 102
   1   5   0   6   0   0   0   0   0   0   0   0   0   0   0   3   0   0   0   0   0   0   0   0   0   0   0   0   0   0   0   1 102
   7   0   0   7   0   9   0   0   0   0   0   0   7   0   5   9   0   0   0   0   0   0   0   0   4   7   0   0   4   0   0   1 102
   2   0   0   0   0   0   0   0   0   0   0   0   0   0   0   0   0   5   0   0   5   0   0   0   0   0   0   0   0   0   0   1 102
  10   8   0   9   0   0   0   0   0   0   9   0   0   0   0   0   0   0   0   8   0   0   9   0   0   0   6   0   0   3   0   1 102
   9   6   6   0   0   0   0   0   0   0   0   0   0   0   0   0   0   0   0   0   0   0   0   0   5   0   5   0   0   0   0   1 102
   1   0   0   0   0   0   0   0   0   0  10   0   0   0   0   0   0   0   0   0   0   5   6  10   0   0   0   0   0   0   0   1 102
   8   7   0   0   0   6   5   6   0   4   0  10   0   0   5   0   0   0   0   0   0   0   0   0   6   0   7   0   0   0   0   1 102
   0   0   0   0   0   0   0   0   0   0   0   0   0   0   0   0   0   0   0   0   0   0   0   0   0   0   0   0   0   0   0   0 
